(set-logic QF_LIA)
(declare-fun x0 () Int)
(declare-fun x1 () Int)
(declare-fun x2 () Int)
(declare-fun x3 () Int)
(declare-fun x4 () Int)
(declare-fun x5 () Int)
(declare-fun x6 () Int)
(declare-fun x7 () Int)
(declare-fun x8 () Int)
(declare-fun x9 () Int)
(declare-fun A0 () Bool)
(declare-fun A1 () Bool)
(declare-fun A2 () Bool)
(declare-fun A3 () Bool)
(declare-fun A4 () Bool)
(declare-fun A5 () Bool)
(declare-fun A6 () Bool)
(declare-fun A7 () Bool)
(declare-fun A8 () Bool)
(declare-fun A9 () Bool)
(assert (let ((.def_0 (* (- 1) x0))) (let ((.def_1 (< .def_0 (- 1)))) (let ((.def_2 (or .def_1 A1))) (let ((.def_3 (not .def_2))) (let ((.def_4 (* (- 1) x5))) (let ((.def_5 (* 1 x6))) (let ((.def_6 (+ .def_5 .def_4))) (let ((.def_7 (< .def_6 1))) (let ((.def_8 (* (- 1) x2))) (let ((.def_9 (* (- 1) x7))) (let ((.def_10 (+ .def_9 .def_8))) (let ((.def_11 (< .def_10 1))) (let ((.def_12 (not .def_11))) (let ((.def_13 (or .def_12 .def_7))) (let ((.def_14 (not .def_13))) (let ((.def_15 (or .def_14 .def_3))) (let ((.def_16 (not .def_15))) (let ((.def_17 (* 1 x2))) (let ((.def_18 (< .def_17 (- 1)))) (let ((.def_19 (and .def_18 A3))) (let ((.def_20 (not .def_19))) (let ((.def_21 (* 1 x0))) (let ((.def_22 (< .def_21 (- 1)))) (let ((.def_23 (and .def_22 A2))) (let ((.def_24 (or .def_23 .def_20))) (let ((.def_25 (not .def_24))) (let ((.def_26 (or .def_25 .def_16))) (let ((.def_27 (* 1 x3))) (let ((.def_28 (+ .def_9 .def_27))) (let ((.def_29 (< .def_28 1))) (let ((.def_30 (or A2 .def_29))) (let ((.def_31 (or A6 A1))) (let ((.def_32 (or .def_31 .def_30))) (let ((.def_33 (not .def_32))) (let ((.def_34 (* 1 x5))) (let ((.def_35 (< .def_34 1))) (let ((.def_36 (and .def_35 A4))) (let ((.def_37 (not .def_36))) (let ((.def_38 (* 1 x9))) (let ((.def_39 (< .def_38 (- 1)))) (let ((.def_40 (not .def_39))) (let ((.def_41 (and A4 .def_40))) (let ((.def_42 (not .def_41))) (let ((.def_43 (or .def_42 .def_37))) (let ((.def_44 (= .def_43 .def_33))) (let ((.def_45 (or .def_44 .def_26))) (let ((.def_46 (< .def_0 1))) (let ((.def_47 (* 1 x7))) (let ((.def_48 (< .def_47 1))) (let ((.def_49 (not .def_48))) (let ((.def_50 (and .def_49 .def_46))) (let ((.def_51 (not .def_50))) (let ((.def_52 (* (- 1) x1))) (let ((.def_53 (+ .def_9 .def_52))) (let ((.def_54 (< .def_53 (- 1)))) (let ((.def_55 (not A7))) (let ((.def_56 (and .def_55 .def_54))) (let ((.def_57 (and .def_56 .def_51))) (let ((.def_58 (not A0))) (let ((.def_59 (< .def_17 1))) (let ((.def_60 (not .def_59))) (let ((.def_61 (and .def_60 .def_58))) (let ((.def_62 (not A9))) (let ((.def_63 (* 1 x8))) (let ((.def_64 (< .def_63 (- 1)))) (let ((.def_65 (or .def_64 .def_62))) (let ((.def_66 (and .def_65 .def_61))) (let ((.def_67 (not .def_66))) (let ((.def_68 (or .def_67 .def_57))) (let ((.def_69 (not .def_68))) (let ((.def_70 (not A4))) (let ((.def_71 (or A9 .def_70))) (let ((.def_72 (* (- 1) x6))) (let ((.def_73 (< .def_72 (- 1)))) (let ((.def_74 (or .def_73 A0))) (let ((.def_75 (and .def_74 .def_71))) (let ((.def_76 (and A6 A5))) (let ((.def_77 (* (- 1) x8))) (let ((.def_78 (+ .def_47 .def_77))) (let ((.def_79 (< .def_78 (- 1)))) (let ((.def_80 (not .def_79))) (let ((.def_81 (or .def_80 A4))) (let ((.def_82 (or .def_81 .def_76))) (let ((.def_83 (or .def_82 .def_75))) (let ((.def_84 (and .def_83 .def_69))) (let ((.def_85 (not .def_84))) (let ((.def_86 (or .def_85 .def_45))) (let ((.def_87 (* (- 1) x9))) (let ((.def_88 (+ .def_87 .def_9))) (let ((.def_89 (< .def_88 (- 1)))) (let ((.def_90 (= .def_89 A7))) (let ((.def_91 (< .def_63 1))) (let ((.def_92 (not A1))) (let ((.def_93 (and .def_92 .def_91))) (let ((.def_94 (not .def_93))) (let ((.def_95 (or .def_94 .def_90))) (let ((.def_96 (+ .def_5 .def_52))) (let ((.def_97 (< .def_96 (- 1)))) (let ((.def_98 (and A2 .def_97))) (let ((.def_99 (not .def_98))) (let ((.def_100 (not A8))) (let ((.def_101 (= A0 .def_100))) (let ((.def_102 (and .def_101 .def_99))) (let ((.def_103 (not .def_102))) (let ((.def_104 (or .def_103 .def_95))) (let ((.def_105 (not A5))) (let ((.def_106 (* (- 1) x3))) (let ((.def_107 (< .def_106 1))) (let ((.def_108 (and .def_107 .def_105))) (let ((.def_109 (not .def_108))) (let ((.def_110 (+ .def_72 .def_21))) (let ((.def_111 (< .def_110 1))) (let ((.def_112 (and .def_60 .def_111))) (let ((.def_113 (not .def_112))) (let ((.def_114 (and .def_113 .def_109))) (let ((.def_115 (* 1 x4))) (let ((.def_116 (< .def_115 1))) (let ((.def_117 (or .def_35 .def_116))) (let ((.def_118 (not .def_117))) (let ((.def_119 (and A0 .def_46))) (let ((.def_120 (not .def_119))) (let ((.def_121 (and .def_120 .def_118))) (let ((.def_122 (not .def_121))) (let ((.def_123 (and .def_122 .def_114))) (let ((.def_124 (and .def_123 .def_104))) (let ((.def_125 (< .def_38 1))) (let ((.def_126 (not .def_125))) (let ((.def_127 (and .def_48 .def_126))) (let ((.def_128 (or A4 .def_58))) (let ((.def_129 (not .def_128))) (let ((.def_130 (or .def_129 .def_127))) (let ((.def_131 (or A8 .def_58))) (let ((.def_132 (not .def_131))) (let ((.def_133 (< .def_72 1))) (let ((.def_134 (or .def_133 .def_92))) (let ((.def_135 (not .def_134))) (let ((.def_136 (or .def_135 .def_132))) (let ((.def_137 (and .def_136 .def_130))) (let ((.def_138 (< .def_9 1))) (let ((.def_139 (= .def_138 .def_105))) (let ((.def_140 (and A5 .def_58))) (let ((.def_141 (and .def_140 .def_139))) (let ((.def_142 (not .def_141))) (let ((.def_143 (< .def_106 (- 1)))) (let ((.def_144 (= A9 .def_143))) (let ((.def_145 (not .def_144))) (let ((.def_146 (not .def_18))) (let ((.def_147 (= .def_146 .def_105))) (let ((.def_148 (= .def_147 .def_145))) (let ((.def_149 (not .def_148))) (let ((.def_150 (and .def_149 .def_142))) (let ((.def_151 (or .def_150 .def_137))) (let ((.def_152 (or .def_151 .def_124))) (let ((.def_153 (or .def_152 .def_86))) (let ((.def_154 (= A9 A5))) (let ((.def_155 (not .def_154))) (let ((.def_156 (and .def_133 .def_105))) (let ((.def_157 (not .def_156))) (let ((.def_158 (and .def_157 .def_155))) (let ((.def_159 (not .def_158))) (let ((.def_160 (< .def_4 1))) (let ((.def_161 (and .def_160 .def_1))) (let ((.def_162 (not .def_1))) (let ((.def_163 (and .def_162 A9))) (let ((.def_164 (or .def_163 .def_161))) (let ((.def_165 (not .def_164))) (let ((.def_166 (= .def_165 .def_159))) (let ((.def_167 (< .def_52 1))) (let ((.def_168 (= .def_167 .def_70))) (let ((.def_169 (< .def_5 (- 1)))) (let ((.def_170 (not .def_169))) (let ((.def_171 (< .def_8 1))) (let ((.def_172 (not .def_171))) (let ((.def_173 (and .def_172 .def_170))) (let ((.def_174 (or .def_173 .def_168))) (let ((.def_175 (not .def_174))) (let ((.def_176 (< .def_77 1))) (let ((.def_177 (not .def_176))) (let ((.def_178 (or A5 .def_177))) (let ((.def_179 (not A3))) (let ((.def_180 (or .def_179 A3))) (let ((.def_181 (not .def_180))) (let ((.def_182 (or .def_181 .def_178))) (let ((.def_183 (or .def_182 .def_175))) (let ((.def_184 (and .def_183 .def_166))) (let ((.def_185 (< .def_87 1))) (let ((.def_186 (not .def_185))) (let ((.def_187 (and .def_186 .def_58))) (let ((.def_188 (and .def_133 A1))) (let ((.def_189 (not .def_188))) (let ((.def_190 (= .def_189 .def_187))) (let ((.def_191 (not .def_190))) (let ((.def_192 (< .def_27 (- 1)))) (let ((.def_193 (not .def_192))) (let ((.def_194 (and .def_193 .def_162))) (let ((.def_195 (not .def_194))) (let ((.def_196 (and A6 .def_92))) (let ((.def_197 (or .def_196 .def_195))) (let ((.def_198 (not .def_197))) (let ((.def_199 (= .def_198 .def_191))) (let ((.def_200 (+ .def_63 .def_115))) (let ((.def_201 (< .def_200 (- 1)))) (let ((.def_202 (or .def_201 .def_100))) (let ((.def_203 (not .def_202))) (let ((.def_204 (and .def_179 .def_105))) (let ((.def_205 (not .def_204))) (let ((.def_206 (or .def_205 .def_203))) (let ((.def_207 (not .def_206))) (let ((.def_208 (* (- 1) x4))) (let ((.def_209 (+ .def_8 .def_208))) (let ((.def_210 (< .def_209 1))) (let ((.def_211 (not .def_210))) (let ((.def_212 (or .def_211 A9))) (let ((.def_213 (not .def_212))) (let ((.def_214 (not A2))) (let ((.def_215 (or .def_214 .def_176))) (let ((.def_216 (not .def_215))) (let ((.def_217 (= .def_216 .def_213))) (let ((.def_218 (= .def_217 .def_207))) (let ((.def_219 (not .def_218))) (let ((.def_220 (and .def_219 .def_199))) (let ((.def_221 (= .def_220 .def_184))) (let ((.def_222 (not .def_221))) (let ((.def_223 (* 1 x1))) (let ((.def_224 (< .def_223 1))) (let ((.def_225 (not .def_224))) (let ((.def_226 (+ .def_47 .def_34))) (let ((.def_227 (< .def_226 1))) (let ((.def_228 (or .def_227 .def_225))) (let ((.def_229 (and A1 A2))) (let ((.def_230 (or .def_229 .def_228))) (let ((.def_231 (not .def_230))) (let ((.def_232 (< .def_27 1))) (let ((.def_233 (not .def_232))) (let ((.def_234 (or A9 .def_233))) (let ((.def_235 (not .def_234))) (let ((.def_236 (< .def_47 (- 1)))) (let ((.def_237 (not .def_236))) (let ((.def_238 (+ .def_63 .def_21))) (let ((.def_239 (< .def_238 (- 1)))) (let ((.def_240 (not .def_239))) (let ((.def_241 (or .def_240 .def_237))) (let ((.def_242 (not .def_241))) (let ((.def_243 (or .def_242 .def_235))) (let ((.def_244 (and .def_243 .def_231))) (let ((.def_245 (and A5 A0))) (let ((.def_246 (not .def_245))) (let ((.def_247 (+ .def_34 .def_5))) (let ((.def_248 (< .def_247 (- 1)))) (let ((.def_249 (or .def_248 A1))) (let ((.def_250 (= .def_249 .def_246))) (let ((.def_251 (+ .def_0 .def_87))) (let ((.def_252 (< .def_251 (- 1)))) (let ((.def_253 (not .def_252))) (let ((.def_254 (+ .def_77 .def_87))) (let ((.def_255 (< .def_254 (- 1)))) (let ((.def_256 (or .def_255 .def_253))) (let ((.def_257 (+ .def_87 .def_52))) (let ((.def_258 (< .def_257 (- 1)))) (let ((.def_259 (not .def_258))) (let ((.def_260 (< .def_52 (- 1)))) (let ((.def_261 (or .def_260 .def_259))) (let ((.def_262 (not .def_261))) (let ((.def_263 (and .def_262 .def_256))) (let ((.def_264 (or .def_263 .def_250))) (let ((.def_265 (or .def_264 .def_244))) (let ((.def_266 (< .def_208 1))) (let ((.def_267 (or .def_266 .def_55))) (let ((.def_268 (not A6))) (let ((.def_269 (+ .def_77 .def_17))) (let ((.def_270 (< .def_269 1))) (let ((.def_271 (not .def_270))) (let ((.def_272 (or .def_271 .def_268))) (let ((.def_273 (or .def_272 .def_267))) (let ((.def_274 (not .def_273))) (let ((.def_275 (< .def_77 (- 1)))) (let ((.def_276 (and .def_275 .def_70))) (let ((.def_277 (not .def_276))) (let ((.def_278 (and A0 .def_58))) (let ((.def_279 (and .def_278 .def_277))) (let ((.def_280 (or .def_279 .def_274))) (let ((.def_281 (not .def_280))) (let ((.def_282 (< .def_87 (- 1)))) (let ((.def_283 (and .def_169 .def_282))) (let ((.def_284 (not .def_283))) (let ((.def_285 (< .def_21 1))) (let ((.def_286 (or .def_285 .def_179))) (let ((.def_287 (not .def_286))) (let ((.def_288 (and .def_287 .def_284))) (let ((.def_289 (not .def_288))) (let ((.def_290 (and A0 A0))) (let ((.def_291 (not .def_290))) (let ((.def_292 (+ .def_5 .def_208))) (let ((.def_293 (< .def_292 1))) (let ((.def_294 (not .def_293))) (let ((.def_295 (or .def_268 .def_294))) (let ((.def_296 (or .def_295 .def_291))) (let ((.def_297 (not .def_296))) (let ((.def_298 (and .def_297 .def_289))) (let ((.def_299 (= .def_298 .def_281))) (let ((.def_300 (not .def_299))) (let ((.def_301 (or .def_300 .def_265))) (let ((.def_302 (not .def_301))) (let ((.def_303 (= .def_302 .def_222))) (let ((.def_304 (not .def_303))) (let ((.def_305 (or .def_304 .def_153))) (let ((.def_306 (< .def_208 (- 1)))) (let ((.def_307 (not .def_306))) (let ((.def_308 (and .def_307 A0))) (let ((.def_309 (or A2 A3))) (let ((.def_310 (or .def_309 .def_308))) (let ((.def_311 (or A2 .def_55))) (let ((.def_312 (not .def_311))) (let ((.def_313 (and .def_214 A6))) (let ((.def_314 (and .def_313 .def_312))) (let ((.def_315 (not .def_314))) (let ((.def_316 (and .def_315 .def_310))) (let ((.def_317 (+ .def_87 .def_5))) (let ((.def_318 (< .def_317 1))) (let ((.def_319 (not .def_318))) (let ((.def_320 (or .def_73 .def_319))) (let ((.def_321 (not .def_320))) (let ((.def_322 (+ .def_87 .def_0))) (let ((.def_323 (< .def_322 1))) (let ((.def_324 (not .def_323))) (let ((.def_325 (+ .def_0 .def_52))) (let ((.def_326 (< .def_325 1))) (let ((.def_327 (= .def_326 .def_324))) (let ((.def_328 (not .def_327))) (let ((.def_329 (and .def_328 .def_321))) (let ((.def_330 (< .def_34 (- 1)))) (let ((.def_331 (not .def_330))) (let ((.def_332 (= .def_143 .def_331))) (let ((.def_333 (and .def_237 .def_233))) (let ((.def_334 (not .def_333))) (let ((.def_335 (and .def_334 .def_332))) (let ((.def_336 (and .def_335 .def_329))) (let ((.def_337 (or .def_336 .def_316))) (let ((.def_338 (not .def_337))) (let ((.def_339 (not .def_266))) (let ((.def_340 (and .def_22 .def_339))) (let ((.def_341 (and A8 .def_236))) (let ((.def_342 (not .def_341))) (let ((.def_343 (or .def_342 .def_340))) (let ((.def_344 (not .def_343))) (let ((.def_345 (+ .def_38 .def_9))) (let ((.def_346 (< .def_345 (- 1)))) (let ((.def_347 (= .def_179 .def_346))) (let ((.def_348 (not .def_347))) (let ((.def_349 (or A0 .def_330))) (let ((.def_350 (or .def_349 .def_348))) (let ((.def_351 (not .def_350))) (let ((.def_352 (and .def_351 .def_344))) (let ((.def_353 (or .def_100 A8))) (let ((.def_354 (not .def_353))) (let ((.def_355 (or .def_105 .def_100))) (let ((.def_356 (= .def_355 .def_354))) (let ((.def_357 (not .def_356))) (let ((.def_358 (and .def_225 .def_92))) (let ((.def_359 (not .def_358))) (let ((.def_360 (+ .def_5 .def_63))) (let ((.def_361 (< .def_360 1))) (let ((.def_362 (+ .def_223 .def_72))) (let ((.def_363 (< .def_362 (- 1)))) (let ((.def_364 (not .def_363))) (let ((.def_365 (and .def_364 .def_361))) (let ((.def_366 (or .def_365 .def_359))) (let ((.def_367 (= .def_366 .def_357))) (let ((.def_368 (= .def_367 .def_352))) (let ((.def_369 (or .def_368 .def_338))) (let ((.def_370 (< .def_4 (- 1)))) (let ((.def_371 (and .def_370 A1))) (let ((.def_372 (and .def_105 .def_55))) (let ((.def_373 (not .def_372))) (let ((.def_374 (and .def_373 .def_371))) (let ((.def_375 (not .def_374))) (let ((.def_376 (+ .def_17 .def_4))) (let ((.def_377 (< .def_376 (- 1)))) (let ((.def_378 (not .def_377))) (let ((.def_379 (and .def_378 .def_133))) (let ((.def_380 (+ .def_34 .def_9))) (let ((.def_381 (< .def_380 (- 1)))) (let ((.def_382 (and .def_381 .def_92))) (let ((.def_383 (or .def_382 .def_379))) (let ((.def_384 (not .def_383))) (let ((.def_385 (or .def_384 .def_375))) (let ((.def_386 (and A6 .def_1))) (let ((.def_387 (not .def_386))) (let ((.def_388 (not .def_54))) (let ((.def_389 (or .def_388 A3))) (let ((.def_390 (= .def_389 .def_387))) (let ((.def_391 (not .def_390))) (let ((.def_392 (+ .def_17 .def_47))) (let ((.def_393 (< .def_392 1))) (let ((.def_394 (and .def_393 A1))) (let ((.def_395 (not .def_282))) (let ((.def_396 (or .def_395 A2))) (let ((.def_397 (or .def_396 .def_394))) (let ((.def_398 (not .def_397))) (let ((.def_399 (or .def_398 .def_391))) (let ((.def_400 (not .def_399))) (let ((.def_401 (or .def_400 .def_385))) (let ((.def_402 (not .def_401))) (let ((.def_403 (+ .def_34 .def_17))) (let ((.def_404 (< .def_403 (- 1)))) (let ((.def_405 (or A9 .def_404))) (let ((.def_406 (and .def_275 A0))) (let ((.def_407 (not .def_406))) (let ((.def_408 (and .def_407 .def_405))) (let ((.def_409 (not .def_408))) (let ((.def_410 (+ .def_0 .def_223))) (let ((.def_411 (< .def_410 (- 1)))) (let ((.def_412 (= .def_35 .def_411))) (let ((.def_413 (+ .def_17 .def_34))) (let ((.def_414 (< .def_413 1))) (let ((.def_415 (not .def_414))) (let ((.def_416 (+ .def_8 .def_0))) (let ((.def_417 (< .def_416 1))) (let ((.def_418 (or .def_417 .def_415))) (let ((.def_419 (not .def_418))) (let ((.def_420 (and .def_419 .def_412))) (let ((.def_421 (and .def_420 .def_409))) (let ((.def_422 (+ .def_38 .def_17))) (let ((.def_423 (< .def_422 (- 1)))) (let ((.def_424 (= .def_423 A8))) (let ((.def_425 (or .def_70 A1))) (let ((.def_426 (not .def_425))) (let ((.def_427 (or .def_426 .def_424))) (let ((.def_428 (+ .def_223 .def_115))) (let ((.def_429 (< .def_428 (- 1)))) (let ((.def_430 (and A6 .def_429))) (let ((.def_431 (and .def_92 A3))) (let ((.def_432 (not .def_431))) (let ((.def_433 (or .def_432 .def_430))) (let ((.def_434 (and .def_433 .def_427))) (let ((.def_435 (not .def_434))) (let ((.def_436 (and .def_435 .def_421))) (let ((.def_437 (or .def_436 .def_402))) (let ((.def_438 (= .def_437 .def_369))) (let ((.def_439 (and .def_70 .def_70))) (let ((.def_440 (or .def_146 A9))) (let ((.def_441 (and .def_440 .def_439))) (let ((.def_442 (not .def_441))) (let ((.def_443 (and .def_268 A5))) (let ((.def_444 (and A6 .def_58))) (let ((.def_445 (not .def_444))) (let ((.def_446 (and .def_445 .def_443))) (let ((.def_447 (not .def_446))) (let ((.def_448 (or .def_447 .def_442))) (let ((.def_449 (not .def_448))) (let ((.def_450 (or .def_268 .def_105))) (let ((.def_451 (not .def_450))) (let ((.def_452 (+ .def_63 .def_47))) (let ((.def_453 (< .def_452 (- 1)))) (let ((.def_454 (not .def_453))) (let ((.def_455 (or A0 .def_454))) (let ((.def_456 (and .def_455 .def_451))) (let ((.def_457 (not .def_456))) (let ((.def_458 (not .def_260))) (let ((.def_459 (or .def_458 .def_268))) (let ((.def_460 (+ .def_52 .def_9))) (let ((.def_461 (< .def_460 (- 1)))) (let ((.def_462 (not .def_461))) (let ((.def_463 (= .def_179 .def_462))) (let ((.def_464 (or .def_463 .def_459))) (let ((.def_465 (not .def_464))) (let ((.def_466 (or .def_465 .def_457))) (let ((.def_467 (not .def_466))) (let ((.def_468 (and .def_467 .def_449))) (let ((.def_469 (not .def_468))) (let ((.def_470 (+ .def_4 .def_21))) (let ((.def_471 (< .def_470 1))) (let ((.def_472 (not .def_471))) (let ((.def_473 (or .def_472 .def_395))) (let ((.def_474 (not .def_473))) (let ((.def_475 (< .def_223 (- 1)))) (let ((.def_476 (and .def_475 .def_92))) (let ((.def_477 (or .def_476 .def_474))) (let ((.def_478 (not .def_477))) (let ((.def_479 (= A5 .def_214))) (let ((.def_480 (+ .def_208 .def_63))) (let ((.def_481 (< .def_480 (- 1)))) (let ((.def_482 (not .def_481))) (let ((.def_483 (or .def_482 .def_179))) (let ((.def_484 (and .def_483 .def_479))) (let ((.def_485 (not .def_484))) (let ((.def_486 (and .def_485 .def_478))) (let ((.def_487 (not .def_486))) (let ((.def_488 (+ .def_52 .def_77))) (let ((.def_489 (< .def_488 (- 1)))) (let ((.def_490 (and A4 .def_489))) (let ((.def_491 (or A6 .def_62))) (let ((.def_492 (and .def_491 .def_490))) (let ((.def_493 (+ .def_47 .def_5))) (let ((.def_494 (< .def_493 (- 1)))) (let ((.def_495 (not .def_494))) (let ((.def_496 (and .def_495 .def_192))) (let ((.def_497 (not .def_496))) (let ((.def_498 (< .def_10 (- 1)))) (let ((.def_499 (or .def_498 .def_105))) (let ((.def_500 (and .def_499 .def_497))) (let ((.def_501 (not .def_500))) (let ((.def_502 (and .def_501 .def_492))) (let ((.def_503 (not .def_502))) (let ((.def_504 (or .def_503 .def_487))) (let ((.def_505 (and .def_504 .def_469))) (let ((.def_506 (not .def_505))) (let ((.def_507 (+ .def_17 .def_115))) (let ((.def_508 (< .def_507 (- 1)))) (let ((.def_509 (not .def_508))) (let ((.def_510 (and .def_509 A2))) (let ((.def_511 (not .def_510))) (let ((.def_512 (or .def_179 .def_62))) (let ((.def_513 (and .def_512 .def_511))) (let ((.def_514 (= .def_214 A1))) (let ((.def_515 (+ .def_63 .def_17))) (let ((.def_516 (< .def_515 (- 1)))) (let ((.def_517 (or A5 .def_516))) (let ((.def_518 (= .def_517 .def_514))) (let ((.def_519 (not .def_518))) (let ((.def_520 (or .def_519 .def_513))) (let ((.def_521 (not .def_107))) (let ((.def_522 (and A2 .def_521))) (let ((.def_523 (not .def_285))) (let ((.def_524 (or .def_523 A7))) (let ((.def_525 (not .def_524))) (let ((.def_526 (and .def_525 .def_522))) (let ((.def_527 (not .def_526))) (let ((.def_528 (+ .def_21 .def_63))) (let ((.def_529 (< .def_528 (- 1)))) (let ((.def_530 (not .def_529))) (let ((.def_531 (+ .def_9 .def_38))) (let ((.def_532 (< .def_531 (- 1)))) (let ((.def_533 (not .def_532))) (let ((.def_534 (or .def_533 .def_530))) (let ((.def_535 (or A2 A4))) (let ((.def_536 (not .def_535))) (let ((.def_537 (and .def_536 .def_534))) (let ((.def_538 (not .def_537))) (let ((.def_539 (or .def_538 .def_527))) (let ((.def_540 (and .def_539 .def_520))) (let ((.def_541 (not .def_540))) (let ((.def_542 (+ .def_223 .def_0))) (let ((.def_543 (< .def_542 1))) (let ((.def_544 (not .def_543))) (let ((.def_545 (and .def_544 .def_179))) (let ((.def_546 (or .def_268 .def_475))) (let ((.def_547 (not .def_546))) (let ((.def_548 (or .def_547 .def_545))) (let ((.def_549 (not .def_548))) (let ((.def_550 (+ .def_5 .def_27))) (let ((.def_551 (< .def_550 (- 1)))) (let ((.def_552 (not .def_551))) (let ((.def_553 (+ .def_77 .def_5))) (let ((.def_554 (< .def_553 (- 1)))) (let ((.def_555 (and .def_554 .def_552))) (let ((.def_556 (not .def_555))) (let ((.def_557 (and .def_268 A4))) (let ((.def_558 (not .def_557))) (let ((.def_559 (and .def_558 .def_556))) (let ((.def_560 (and .def_559 .def_549))) (let ((.def_561 (and .def_100 A6))) (let ((.def_562 (not .def_561))) (let ((.def_563 (not .def_275))) (let ((.def_564 (+ .def_21 .def_223))) (let ((.def_565 (< .def_564 (- 1)))) (let ((.def_566 (not .def_565))) (let ((.def_567 (or .def_566 .def_563))) (let ((.def_568 (and .def_567 .def_562))) (let ((.def_569 (not .def_568))) (let ((.def_570 (not .def_46))) (let ((.def_571 (+ .def_72 .def_27))) (let ((.def_572 (< .def_571 (- 1)))) (let ((.def_573 (or .def_572 .def_570))) (let ((.def_574 (+ .def_77 .def_8))) (let ((.def_575 (< .def_574 (- 1)))) (let ((.def_576 (or .def_100 .def_575))) (let ((.def_577 (not .def_576))) (let ((.def_578 (and .def_577 .def_573))) (let ((.def_579 (not .def_578))) (let ((.def_580 (= .def_579 .def_569))) (let ((.def_581 (and .def_580 .def_560))) (let ((.def_582 (not .def_581))) (let ((.def_583 (and .def_582 .def_541))) (let ((.def_584 (or .def_583 .def_506))) (let ((.def_585 (and .def_584 .def_438))) (let ((.def_586 (not .def_585))) (let ((.def_587 (= .def_586 .def_305))) (let ((.def_588 (<= x9 1))) (let ((.def_589 (<= 0 x9))) (let ((.def_590 (<= x8 1))) (let ((.def_591 (<= 0 x8))) (let ((.def_592 (<= x7 1))) (let ((.def_593 (<= 0 x7))) (let ((.def_594 (<= x6 1))) (let ((.def_595 (<= 0 x6))) (let ((.def_596 (<= x5 1))) (let ((.def_597 (<= 0 x5))) (let ((.def_598 (<= x4 1))) (let ((.def_599 (<= 0 x4))) (let ((.def_600 (<= x3 1))) (let ((.def_601 (<= 0 x3))) (let ((.def_602 (<= x2 1))) (let ((.def_603 (<= 0 x2))) (let ((.def_604 (<= x1 1))) (let ((.def_605 (<= 0 x1))) (let ((.def_606 (<= x0 1))) (let ((.def_607 (<= 0 x0))) (let ((.def_608 (and .def_607 .def_606 .def_605 .def_604 .def_603 .def_602 .def_601 .def_600 .def_599 .def_598 .def_597 .def_596 .def_595 .def_594 .def_593 .def_592 .def_591 .def_590 .def_589 .def_588 .def_587))) .def_608))))))))))))))))))))))))))))))))))))))))))))))))))))))))))))))))))))))))))))))))))))))))))))))))))))))))))))))))))))))))))))))))))))))))))))))))))))))))))))))))))))))))))))))))))))))))))))))))))))))))))))))))))))))))))))))))))))))))))))))))))))))))))))))))))))))))))))))))))))))))))))))))))))))))))))))))))))))))))))))))))))))))))))))))))))))))))))))))))))))))))))))))))))))))))))))))))))))))))))))))))))))))))))))))))))))))))))))))))))))))))))))))))))))))))))))))))))))))))))))))))))))))))))))))))))))))))))))))))))))))))))))))))))))))))))))))))))))))))))))))))))))))))))))))))))))))))))))))))))))))))))))))))
(check-sat)
